c Result of efficient AIG-to-CNF conversion using package CNF
p cnf 428 1620
-2 3 341 343 345 0
-2 3 -341 -343 345 0
2 -345 0
2 -341 343 0
2 -3 0
2 341 -343 0
3 4 -225 0
3 -4 225 0
-3 -4 -225 0
-3 4 225 0
4 5 -216 0
4 -5 216 0
-4 -5 -216 0
-4 5 216 0
5 -365 -46 0
5 -365 -6 0
5 -6 -46 0
-5 6 46 0
-5 365 46 0
-5 365 6 0
-6 397 7 0
6 -397 0
6 -7 0
7 -423 8 -34 0
7 423 8 -19 0
-7 -8 0
-7 -423 34 0
-7 423 19 0
-8 396 9 13 14 0
8 -396 0
8 -14 0
8 -13 0
8 -9 0
-9 412 414 10 12 0
9 -412 0
9 -12 0
9 -10 0
9 -414 0
-10 405 406 407 11 0
10 -11 0
10 -407 0
10 -405 0
10 -406 0
-11 402 403 404 0
11 -402 0
11 -404 0
11 -403 0
-12 410 411 413 0
12 -410 0
12 -413 0
12 -411 0
-13 421 422 0
13 -421 0
13 -422 0
-14 408 409 15 18 0
14 -408 0
14 -18 0
14 -15 0
14 -409 0
-15 415 416 417 16 0
15 -16 0
15 -417 0
15 -415 0
15 -416 0
-16 397 398 400 17 0
16 -17 0
16 -400 0
16 -397 0
16 -398 0
-17 399 401 0
17 -399 0
17 -401 0
-18 418 419 420 0
18 -418 0
18 -420 0
18 -419 0
-19 424 20 0
-19 -424 27 0
19 -424 -27 0
19 424 -20 0
-20 425 21 0
-20 -425 24 0
20 -425 -24 0
20 425 -21 0
-21 426 23 0
-21 -426 22 0
21 -426 -22 0
21 426 -23 0
22 -400 -427 0
22 -399 427 0
-22 399 427 0
-22 400 -427 0
23 -398 -427 0
23 -397 427 0
-23 397 427 0
-23 398 -427 0
24 426 -25 0
24 -426 -26 0
-24 -426 26 0
-24 426 25 0
25 -402 -427 0
25 -401 427 0
-25 401 427 0
-25 402 -427 0
26 -404 -427 0
26 -403 427 0
-26 403 427 0
-26 404 -427 0
27 425 -28 0
27 -425 -31 0
-27 -425 31 0
-27 425 28 0
28 426 -29 0
28 -426 -30 0
-28 -426 30 0
-28 426 29 0
29 -406 -427 0
29 -405 427 0
-29 405 427 0
-29 406 -427 0
30 -408 -427 0
30 -407 427 0
-30 407 427 0
-30 408 -427 0
31 426 -32 0
31 -426 -33 0
-31 -426 33 0
-31 426 32 0
32 -410 -427 0
32 -409 427 0
-32 409 427 0
-32 410 -427 0
33 -412 -427 0
33 -411 427 0
-33 411 427 0
-33 412 -427 0
34 424 -35 0
34 -424 -42 0
-34 -424 42 0
-34 424 35 0
35 425 -36 0
35 -425 -39 0
-35 -425 39 0
-35 425 36 0
36 426 -37 0
36 -426 -38 0
-36 -426 38 0
-36 426 37 0
37 -414 -427 0
37 -413 427 0
-37 413 427 0
-37 414 -427 0
38 -416 -427 0
38 -415 427 0
-38 415 427 0
-38 416 -427 0
39 426 -40 0
39 -426 -41 0
-39 -426 41 0
-39 426 40 0
40 -418 -427 0
40 -417 427 0
-40 417 427 0
-40 418 -427 0
41 -420 -427 0
41 -419 427 0
-41 419 427 0
-41 420 -427 0
-42 -425 -426 0
-42 425 43 0
-42 -425 -427 0
42 425 -43 0
42 -425 426 427 0
43 426 -44 0
43 -426 -45 0
-43 -426 45 0
-43 426 44 0
44 -422 -427 0
44 -421 427 0
-44 421 427 0
-44 422 -427 0
45 -424 -427 0
45 -423 427 0
-45 423 427 0
-45 424 -427 0
46 -366 -76 0
46 -366 -47 0
46 -47 -76 0
-46 47 76 0
-46 366 76 0
-46 366 47 0
-47 398 48 0
47 -398 0
47 -48 0
48 -423 8 -64 0
48 423 8 -49 0
-48 -8 0
-48 -423 64 0
-48 423 49 0
-49 424 50 0
-49 -424 57 0
49 -424 -57 0
49 424 -50 0
-50 425 51 0
-50 -425 54 0
50 -425 -54 0
50 425 -51 0
-51 426 53 0
-51 -426 52 0
51 -426 -52 0
51 426 -53 0
52 -401 -427 0
52 -400 427 0
-52 400 427 0
-52 401 -427 0
53 -399 -427 0
53 -398 427 0
-53 398 427 0
-53 399 -427 0
54 426 -55 0
54 -426 -56 0
-54 -426 56 0
-54 426 55 0
55 -403 -427 0
55 -402 427 0
-55 402 427 0
-55 403 -427 0
56 -405 -427 0
56 -404 427 0
-56 404 427 0
-56 405 -427 0
57 425 -58 0
57 -425 -61 0
-57 -425 61 0
-57 425 58 0
58 426 -59 0
58 -426 -60 0
-58 -426 60 0
-58 426 59 0
59 -407 -427 0
59 -406 427 0
-59 406 427 0
-59 407 -427 0
60 -409 -427 0
60 -408 427 0
-60 408 427 0
-60 409 -427 0
61 426 -62 0
61 -426 -63 0
-61 -426 63 0
-61 426 62 0
62 -411 -427 0
62 -410 427 0
-62 410 427 0
-62 411 -427 0
63 -413 -427 0
63 -412 427 0
-63 412 427 0
-63 413 -427 0
64 424 -65 0
64 -424 -72 0
-64 -424 72 0
-64 424 65 0
65 425 -66 0
65 -425 -69 0
-65 -425 69 0
-65 425 66 0
66 426 -67 0
66 -426 -68 0
-66 -426 68 0
-66 426 67 0
67 -415 -427 0
67 -414 427 0
-67 414 427 0
-67 415 -427 0
68 -417 -427 0
68 -416 427 0
-68 416 427 0
-68 417 -427 0
69 426 -70 0
69 -426 -71 0
-69 -426 71 0
-69 426 70 0
70 -419 -427 0
70 -418 427 0
-70 418 427 0
-70 419 -427 0
71 -421 -427 0
71 -420 427 0
-71 420 427 0
-71 421 -427 0
72 425 -73 0
72 -425 426 -427 0
-72 -425 -426 0
-72 425 73 0
-72 -425 427 0
73 426 -74 0
73 -426 -75 0
-73 -426 75 0
-73 426 74 0
74 -423 -427 0
74 -422 427 0
-74 422 427 0
-74 423 -427 0
75 -425 -427 0
75 -424 427 0
-75 424 427 0
-75 425 -427 0
76 -367 -92 0
76 -367 -77 0
76 -77 -92 0
-76 77 92 0
-76 367 92 0
-76 367 77 0
-77 399 78 0
77 -399 0
77 -78 0
78 -423 8 -86 0
78 423 8 -79 0
-78 -8 0
-78 -423 86 0
-78 423 79 0
-79 424 80 0
-79 -424 83 0
79 -424 -83 0
79 424 -80 0
-80 425 81 0
-80 -425 82 0
80 -425 -82 0
80 425 -81 0
-81 -426 25 0
-81 426 22 0
81 426 -22 0
81 -426 -25 0
82 426 -26 0
82 -426 -29 0
-82 -426 29 0
-82 426 26 0
83 425 -84 0
83 -425 -85 0
-83 -425 85 0
-83 425 84 0
84 426 -30 0
84 -426 -32 0
-84 -426 32 0
-84 426 30 0
85 426 -33 0
85 -426 -37 0
-85 -426 37 0
-85 426 33 0
86 424 -87 0
86 -424 -90 0
-86 -424 90 0
-86 424 87 0
87 425 -88 0
87 -425 -89 0
-87 -425 89 0
-87 425 88 0
88 426 -38 0
88 -426 -40 0
-88 -426 40 0
-88 426 38 0
89 426 -41 0
89 -426 -44 0
-89 -426 44 0
-89 426 41 0
90 425 -91 0
-90 -425 0
-90 91 0
91 -425 -426 0
91 426 -45 0
91 -426 -427 0
-91 426 45 0
-91 425 -426 427 0
92 -368 -107 0
92 -368 -93 0
92 -93 -107 0
-92 93 107 0
-92 368 107 0
-92 368 93 0
-93 400 94 0
93 -400 0
93 -94 0
94 -423 8 -102 0
94 423 8 -95 0
-94 -8 0
-94 -423 102 0
-94 423 95 0
-95 424 96 0
-95 -424 99 0
95 -424 -99 0
95 424 -96 0
-96 425 98 0
-96 -425 97 0
96 -425 -97 0
96 425 -98 0
97 426 -56 0
97 -426 -59 0
-97 -426 59 0
-97 426 56 0
98 426 -52 0
98 -426 -55 0
-98 -426 55 0
-98 426 52 0
99 425 -100 0
99 -425 -101 0
-99 -425 101 0
-99 425 100 0
100 426 -60 0
100 -426 -62 0
-100 -426 62 0
-100 426 60 0
101 426 -63 0
101 -426 -67 0
-101 -426 67 0
-101 426 63 0
102 424 -103 0
102 -424 -106 0
-102 -424 106 0
-102 424 103 0
103 425 -104 0
103 -425 -105 0
-103 -425 105 0
-103 425 104 0
104 426 -68 0
104 -426 -70 0
-104 -426 70 0
-104 426 68 0
105 426 -71 0
105 -426 -74 0
-105 -426 74 0
-105 426 71 0
106 425 -426 0
106 -424 425 427 0
-106 -425 0
-106 426 -427 0
-106 424 426 0
107 -369 -115 0
107 -369 -108 0
107 -108 -115 0
-107 108 115 0
-107 369 115 0
-107 369 108 0
-108 401 109 0
108 -401 0
108 -109 0
109 -423 111 0
109 -424 111 0
109 -110 111 0
-109 -111 0
-109 423 424 110 0
110 425 -24 0
110 -425 -28 0
-110 -425 28 0
-110 425 24 0
-111 424 8 113 0
-111 8 -112 113 0
111 -8 0
111 -113 0
111 -424 112 0
112 425 -31 0
112 -425 -36 0
-112 -425 36 0
-112 425 31 0
113 -423 -424 0
113 -423 114 0
-113 423 0
-113 424 -114 0
114 425 -39 0
114 -425 -43 0
-114 -425 43 0
-114 425 39 0
115 -370 -124 0
115 -370 -116 0
115 -116 -124 0
-115 116 124 0
-115 370 124 0
-115 370 116 0
-116 402 117 0
116 -402 0
116 -117 0
117 -423 8 -121 0
117 423 8 -118 0
-117 -8 0
-117 -423 121 0
-117 423 118 0
-118 424 119 0
-118 -424 120 0
118 -424 -120 0
118 424 -119 0
-119 -425 58 0
-119 425 54 0
119 425 -54 0
119 -425 -58 0
120 425 -61 0
120 -425 -66 0
-120 -425 66 0
-120 425 61 0
121 424 -122 0
121 -424 -123 0
-121 -424 123 0
-121 424 122 0
122 425 -69 0
122 -425 -73 0
-122 -425 73 0
-122 425 69 0
123 425 426 -427 0
-123 427 0
-123 -426 0
-123 -425 0
124 -371 -132 0
124 -371 -125 0
124 -125 -132 0
-124 125 132 0
-124 371 132 0
-124 371 125 0
-125 403 126 0
125 -403 0
125 -126 0
126 -423 8 -130 0
126 423 8 -127 0
-126 -8 0
-126 -423 130 0
-126 423 127 0
127 424 -128 0
127 -424 -129 0
-127 -424 129 0
-127 424 128 0
128 425 -82 0
128 -425 -84 0
-128 -425 84 0
-128 425 82 0
129 425 -85 0
129 -425 -88 0
-129 -425 88 0
-129 425 85 0
130 424 -131 0
-130 -424 0
-130 131 0
131 -425 -426 0
131 425 -89 0
131 -425 -45 0
-131 425 89 0
-131 -425 426 45 0
132 -372 -141 0
132 -372 -133 0
132 -133 -141 0
-132 133 141 0
-132 372 141 0
-132 372 133 0
-133 404 134 0
133 -404 0
133 -134 0
134 -423 8 -138 0
134 423 8 -135 0
-134 -8 0
-134 -423 138 0
-134 423 135 0
135 424 -136 0
135 -424 -137 0
-135 -424 137 0
-135 424 136 0
136 425 -97 0
136 -425 -100 0
-136 -425 100 0
-136 425 97 0
137 425 -101 0
137 -425 -104 0
-137 -425 104 0
-137 425 101 0
138 424 -139 0
-138 -424 0
-138 139 0
139 425 -105 0
139 -425 -140 0
-139 -425 140 0
-139 425 105 0
-140 425 426 -427 0
-140 424 426 427 0
140 -426 0
140 -424 427 0
140 -425 -427 0
141 -373 -146 0
141 -373 -142 0
141 -142 -146 0
-141 142 146 0
-141 373 146 0
-141 373 142 0
-142 405 143 0
142 -405 0
142 -143 0
143 -423 8 -145 0
143 423 8 -144 0
-143 -8 0
-143 -423 145 0
-143 423 144 0
144 424 -27 0
144 -424 -35 0
-144 -424 35 0
-144 424 27 0
145 424 -42 0
-145 -424 0
-145 42 0
146 -374 -151 0
146 -374 -147 0
146 -147 -151 0
-146 147 151 0
-146 374 151 0
-146 374 147 0
-147 406 148 0
147 -406 0
147 -148 0
148 -423 8 -150 0
148 423 8 -149 0
-148 -8 0
-148 -423 150 0
-148 423 149 0
149 424 -57 0
149 -424 -65 0
-149 -424 65 0
-149 424 57 0
150 424 -72 0
-150 -424 0
-150 72 0
151 -375 -156 0
151 -375 -152 0
151 -152 -156 0
-151 152 156 0
-151 375 156 0
-151 375 152 0
-152 407 153 0
152 -407 0
152 -153 0
153 -423 8 -155 0
153 423 8 -154 0
-153 -8 0
-153 -423 155 0
-153 423 154 0
154 424 -83 0
154 -424 -87 0
-154 -424 87 0
-154 424 83 0
155 424 -90 0
-155 -424 0
-155 90 0
156 -376 -161 0
156 -376 -157 0
156 -157 -161 0
-156 157 161 0
-156 376 161 0
-156 376 157 0
-157 408 158 0
157 -408 0
157 -158 0
158 -423 8 -160 0
158 423 8 -159 0
-158 -8 0
-158 -423 160 0
-158 423 159 0
159 424 -99 0
159 -424 -103 0
-159 -424 103 0
-159 424 99 0
160 424 425 -426 0
-160 426 0
-160 -425 0
-160 -424 0
161 -377 -165 0
161 -377 -162 0
161 -162 -165 0
-161 162 165 0
-161 377 165 0
-161 377 162 0
-162 409 163 0
162 -409 0
162 -163 0
163 423 424 -164 0
163 423 -114 -164 0
-163 -423 0
-163 164 0
-163 -424 114 0
164 -424 8 0
164 8 -112 0
-164 -8 0
-164 424 112 0
165 -378 -170 0
165 -378 -166 0
165 -166 -170 0
-165 166 170 0
-165 378 170 0
-165 378 166 0
-166 410 167 0
166 -410 0
166 -167 0
167 -423 8 -169 0
167 423 8 -168 0
-167 -8 0
-167 -423 169 0
-167 423 168 0
168 424 -120 0
168 -424 -122 0
-168 -424 122 0
-168 424 120 0
169 424 425 426 -427 0
-169 427 0
-169 -426 0
-169 -424 0
-169 -425 0
170 -379 -174 0
170 -379 -171 0
170 -171 -174 0
-170 171 174 0
-170 379 174 0
-170 379 171 0
-171 411 172 0
171 -411 0
171 -172 0
172 424 -129 173 0
172 -424 -131 173 0
-172 -173 0
-172 -424 131 0
-172 424 129 0
-173 423 8 0
173 -423 0
173 -8 0
174 -380 -178 0
174 -380 -175 0
174 -175 -178 0
-174 175 178 0
-174 380 178 0
-174 380 175 0
-175 412 176 0
175 -412 0
175 -176 0
176 173 -177 0
-176 -173 0
-176 177 0
177 424 -137 0
177 -424 -139 0
-177 -424 139 0
-177 424 137 0
178 -381 -181 0
178 -381 -179 0
178 -179 -181 0
-178 179 181 0
-178 381 181 0
-178 381 179 0
-179 413 180 0
179 -413 0
179 -180 0
180 -34 173 0
-180 34 0
-180 -173 0
181 -382 -184 0
181 -382 -182 0
181 -182 -184 0
-181 182 184 0
-181 382 184 0
-181 382 182 0
-182 414 183 0
182 -414 0
182 -183 0
183 -64 173 0
-183 64 0
-183 -173 0
184 -383 -187 0
184 -383 -185 0
184 -185 -187 0
-184 185 187 0
-184 383 187 0
-184 383 185 0
-185 415 186 0
185 -415 0
185 -186 0
186 -86 173 0
-186 86 0
-186 -173 0
187 -384 -190 0
187 -384 -188 0
187 -188 -190 0
-187 188 190 0
-187 384 190 0
-187 384 188 0
-188 416 189 0
188 -416 0
188 -189 0
189 -102 173 0
-189 102 0
-189 -173 0
190 -385 -417 0
190 -417 -191 0
190 -385 -191 0
-190 385 191 0
-190 417 191 0
-190 385 417 0
191 -386 -194 0
191 -386 -192 0
191 -192 -194 0
-191 192 194 0
-191 386 194 0
-191 386 192 0
-192 418 193 0
192 -418 0
192 -193 0
193 -121 173 0
-193 121 0
-193 -173 0
194 -387 -197 0
194 -387 -195 0
194 -195 -197 0
-194 195 197 0
-194 387 197 0
-194 387 195 0
-195 419 196 0
195 -419 0
195 -196 0
196 -130 173 0
-196 130 0
-196 -173 0
197 -388 -200 0
197 -388 -198 0
197 -198 -200 0
-197 198 200 0
-197 388 200 0
-197 388 198 0
-198 420 199 0
198 -420 0
198 -199 0
199 -138 173 0
-199 138 0
-199 -173 0
200 -389 -203 0
200 -389 -201 0
200 -201 -203 0
-200 201 203 0
-200 389 203 0
-200 389 201 0
-201 421 202 0
201 -421 0
201 -202 0
202 -145 173 0
-202 145 0
-202 -173 0
203 -390 -206 0
203 -390 -204 0
203 -204 -206 0
-203 204 206 0
-203 390 206 0
-203 390 204 0
-204 422 205 0
204 -422 0
204 -205 0
205 -150 173 0
-205 150 0
-205 -173 0
206 -391 -209 0
206 -391 -207 0
206 -207 -209 0
-206 207 209 0
-206 391 209 0
-206 391 207 0
-207 423 208 0
207 -423 0
207 -208 0
208 -155 173 0
-208 155 0
-208 -173 0
209 -392 -212 0
209 -392 -210 0
209 -210 -212 0
-209 210 212 0
-209 392 212 0
-209 392 210 0
-210 424 211 0
210 -424 0
210 -211 0
211 424 425 -426 173 0
-211 -424 0
-211 -173 0
-211 426 0
-211 -425 0
212 -393 -425 0
212 -425 -213 0
212 -393 -213 0
-212 425 213 0
-212 393 425 0
-212 393 213 0
-213 394 214 0
-213 394 426 215 0
-213 426 214 215 0
213 -394 -214 0
213 -214 -215 0
213 -394 -215 0
213 -394 -426 0
213 -426 -214 0
214 -395 -427 0
-214 395 0
-214 427 0
215 -169 173 0
-215 169 0
-215 -173 0
216 -364 217 0
216 364 -217 0
-216 364 217 0
-216 -364 -217 0
-217 396 218 0
217 -396 0
217 -218 0
218 -423 -177 223 0
218 423 -219 223 0
-218 -223 0
-218 -423 177 0
-218 423 219 0
219 -424 -136 0
219 424 -220 0
-219 424 220 0
-219 -424 136 0
220 -425 -98 0
220 425 -221 0
-220 425 221 0
-220 -425 98 0
221 -426 -53 0
221 426 -222 0
-221 426 222 0
-221 -426 53 0
222 -397 -427 0
222 -396 427 0
-222 396 427 0
-222 397 -427 0
-223 408 409 9 224 0
223 -408 0
223 -224 0
223 -9 0
223 -409 0
-224 421 422 15 18 0
224 -421 0
224 -18 0
224 -15 0
224 -422 0
225 226 -257 0
225 -226 257 0
-225 -226 -257 0
-225 226 257 0
226 216 -227 0
226 -216 227 0
-226 -216 -227 0
-226 216 227 0
227 -365 -7 0
227 -7 -228 0
227 -365 -228 0
-227 365 228 0
-227 7 228 0
-227 365 7 0
228 -366 -48 0
228 -48 -229 0
228 -366 -229 0
-228 366 229 0
-228 48 229 0
-228 366 48 0
229 -367 -78 0
229 -78 -230 0
229 -367 -230 0
-229 367 230 0
-229 78 230 0
-229 367 78 0
230 -368 -94 0
230 -94 -231 0
230 -368 -231 0
-230 368 231 0
-230 94 231 0
-230 368 94 0
231 -369 -109 0
231 -109 -232 0
231 -369 -232 0
-231 369 232 0
-231 109 232 0
-231 369 109 0
232 -370 -117 0
232 -117 -233 0
232 -370 -233 0
-232 370 233 0
-232 117 233 0
-232 370 117 0
233 -371 -126 0
233 -126 -234 0
233 -371 -234 0
-233 371 234 0
-233 126 234 0
-233 371 126 0
234 -372 -134 0
234 -134 -235 0
234 -372 -235 0
-234 372 235 0
-234 134 235 0
-234 372 134 0
235 -373 -143 0
235 -143 -236 0
235 -373 -236 0
-235 373 236 0
-235 143 236 0
-235 373 143 0
236 -374 -148 0
236 -148 -237 0
236 -374 -237 0
-236 374 237 0
-236 148 237 0
-236 374 148 0
237 -375 -153 0
237 -153 -238 0
237 -375 -238 0
-237 375 238 0
-237 153 238 0
-237 375 153 0
238 -376 -158 0
238 -158 -239 0
238 -376 -239 0
-238 376 239 0
-238 158 239 0
-238 376 158 0
239 -377 -163 0
239 -163 -240 0
239 -377 -240 0
-239 377 240 0
-239 163 240 0
-239 377 163 0
240 -378 -167 0
240 -167 -241 0
240 -378 -241 0
-240 378 241 0
-240 167 241 0
-240 378 167 0
241 -379 -172 0
241 -172 -242 0
241 -379 -242 0
-241 379 242 0
-241 172 242 0
-241 379 172 0
242 -380 -176 0
242 -176 -243 0
242 -380 -243 0
-242 380 243 0
-242 176 243 0
-242 380 176 0
243 -381 -180 0
243 -180 -244 0
243 -381 -244 0
-243 381 244 0
-243 180 244 0
-243 381 180 0
244 -382 -183 0
244 -183 -245 0
244 -382 -245 0
-244 382 245 0
-244 183 245 0
-244 382 183 0
245 -383 -186 0
245 -186 -246 0
245 -383 -246 0
-245 383 246 0
-245 186 246 0
-245 383 186 0
246 -384 -189 0
246 -189 -247 0
246 -384 -247 0
-246 384 247 0
-246 189 247 0
-246 384 189 0
247 -385 -248 0
-247 385 0
-247 248 0
248 -386 -193 0
248 -193 -249 0
248 -386 -249 0
-248 386 249 0
-248 193 249 0
-248 386 193 0
249 -387 -196 0
249 -196 -250 0
249 -387 -250 0
-249 387 250 0
-249 196 250 0
-249 387 196 0
250 -388 -199 0
250 -199 -251 0
250 -388 -251 0
-250 388 251 0
-250 199 251 0
-250 388 199 0
251 -389 -202 0
251 -202 -252 0
251 -389 -252 0
-251 389 252 0
-251 202 252 0
-251 389 202 0
252 -390 -205 0
252 -205 -253 0
252 -390 -253 0
-252 390 253 0
-252 205 253 0
-252 390 205 0
253 -391 -208 0
253 -208 -254 0
253 -391 -254 0
-253 391 254 0
-253 208 254 0
-253 391 208 0
254 -392 -211 0
254 -211 -255 0
254 -392 -255 0
-254 392 255 0
-254 211 255 0
-254 392 211 0
255 -393 -256 0
-255 393 0
-255 256 0
256 -394 -215 0
-256 394 0
-256 215 0
257 -397 -260 0
257 -397 -258 0
257 -258 -260 0
-257 258 260 0
-257 397 260 0
-257 397 258 0
-258 -228 -259 0
-258 228 259 0
258 228 -259 0
258 -228 259 0
259 365 -7 0
259 -365 7 0
-259 -365 -7 0
-259 365 7 0
260 -398 -263 0
260 -398 -261 0
260 -261 -263 0
-260 261 263 0
-260 398 263 0
-260 398 261 0
-261 -229 -262 0
-261 229 262 0
261 229 -262 0
261 -229 262 0
262 366 -48 0
262 -366 48 0
-262 -366 -48 0
-262 366 48 0
263 -399 -266 0
263 -399 -264 0
263 -264 -266 0
-263 264 266 0
-263 399 266 0
-263 399 264 0
-264 -230 -265 0
-264 230 265 0
264 230 -265 0
264 -230 265 0
265 367 -78 0
265 -367 78 0
-265 -367 -78 0
-265 367 78 0
266 -400 -269 0
266 -400 -267 0
266 -267 -269 0
-266 267 269 0
-266 400 269 0
-266 400 267 0
-267 -231 -268 0
-267 231 268 0
267 231 -268 0
267 -231 268 0
268 368 -94 0
268 -368 94 0
-268 -368 -94 0
-268 368 94 0
269 -401 -272 0
269 -401 -270 0
269 -270 -272 0
-269 270 272 0
-269 401 272 0
-269 401 270 0
-270 -232 -271 0
-270 232 271 0
270 232 -271 0
270 -232 271 0
271 369 -109 0
271 -369 109 0
-271 -369 -109 0
-271 369 109 0
272 -402 -275 0
272 -402 -273 0
272 -273 -275 0
-272 273 275 0
-272 402 275 0
-272 402 273 0
-273 -233 -274 0
-273 233 274 0
273 233 -274 0
273 -233 274 0
274 370 -117 0
274 -370 117 0
-274 -370 -117 0
-274 370 117 0
275 -403 -278 0
275 -403 -276 0
275 -276 -278 0
-275 276 278 0
-275 403 278 0
-275 403 276 0
-276 -234 -277 0
-276 234 277 0
276 234 -277 0
276 -234 277 0
277 371 -126 0
277 -371 126 0
-277 -371 -126 0
-277 371 126 0
278 -404 -281 0
278 -404 -279 0
278 -279 -281 0
-278 279 281 0
-278 404 281 0
-278 404 279 0
-279 -235 -280 0
-279 235 280 0
279 235 -280 0
279 -235 280 0
280 372 -134 0
280 -372 134 0
-280 -372 -134 0
-280 372 134 0
281 -405 -284 0
281 -405 -282 0
281 -282 -284 0
-281 282 284 0
-281 405 284 0
-281 405 282 0
-282 -236 -283 0
-282 236 283 0
282 236 -283 0
282 -236 283 0
283 373 -143 0
283 -373 143 0
-283 -373 -143 0
-283 373 143 0
284 -406 -287 0
284 -406 -285 0
284 -285 -287 0
-284 285 287 0
-284 406 287 0
-284 406 285 0
-285 -237 -286 0
-285 237 286 0
285 237 -286 0
285 -237 286 0
286 374 -148 0
286 -374 148 0
-286 -374 -148 0
-286 374 148 0
287 -407 -290 0
287 -407 -288 0
287 -288 -290 0
-287 288 290 0
-287 407 290 0
-287 407 288 0
-288 -238 -289 0
-288 238 289 0
288 238 -289 0
288 -238 289 0
289 375 -153 0
289 -375 153 0
-289 -375 -153 0
-289 375 153 0
290 -408 -293 0
290 -408 -291 0
290 -291 -293 0
-290 291 293 0
-290 408 293 0
-290 408 291 0
-291 -239 -292 0
-291 239 292 0
291 239 -292 0
291 -239 292 0
292 376 -158 0
292 -376 158 0
-292 -376 -158 0
-292 376 158 0
293 -409 -296 0
293 -409 -294 0
293 -294 -296 0
-293 294 296 0
-293 409 296 0
-293 409 294 0
-294 -240 -295 0
-294 240 295 0
294 240 -295 0
294 -240 295 0
295 377 -163 0
295 -377 163 0
-295 -377 -163 0
-295 377 163 0
296 -410 -299 0
296 -410 -297 0
296 -297 -299 0
-296 297 299 0
-296 410 299 0
-296 410 297 0
-297 -241 -298 0
-297 241 298 0
297 241 -298 0
297 -241 298 0
298 378 -167 0
298 -378 167 0
-298 -378 -167 0
-298 378 167 0
299 -411 -302 0
299 -411 -300 0
299 -300 -302 0
-299 300 302 0
-299 411 302 0
-299 411 300 0
-300 -242 -301 0
-300 242 301 0
300 242 -301 0
300 -242 301 0
301 379 -172 0
301 -379 172 0
-301 -379 -172 0
-301 379 172 0
302 -412 -305 0
302 -412 -303 0
302 -303 -305 0
-302 303 305 0
-302 412 305 0
-302 412 303 0
-303 -243 -304 0
-303 243 304 0
303 243 -304 0
303 -243 304 0
304 380 -176 0
304 -380 176 0
-304 -380 -176 0
-304 380 176 0
305 -413 -308 0
305 -413 -306 0
305 -306 -308 0
-305 306 308 0
-305 413 308 0
-305 413 306 0
-306 -244 -307 0
-306 244 307 0
306 244 -307 0
306 -244 307 0
307 381 -180 0
307 -381 180 0
-307 -381 -180 0
-307 381 180 0
308 -414 -311 0
308 -414 -309 0
308 -309 -311 0
-308 309 311 0
-308 414 311 0
-308 414 309 0
-309 -245 -310 0
-309 245 310 0
309 245 -310 0
309 -245 310 0
310 382 -183 0
310 -382 183 0
-310 -382 -183 0
-310 382 183 0
311 -415 -314 0
311 -415 -312 0
311 -312 -314 0
-311 312 314 0
-311 415 314 0
-311 415 312 0
-312 -246 -313 0
-312 246 313 0
312 246 -313 0
312 -246 313 0
313 383 -186 0
313 -383 186 0
-313 -383 -186 0
-313 383 186 0
314 -416 -317 0
314 -416 -315 0
314 -315 -317 0
-314 315 317 0
-314 416 317 0
-314 416 315 0
-315 -247 -316 0
-315 247 316 0
315 247 -316 0
315 -247 316 0
316 384 -189 0
316 -384 189 0
-316 -384 -189 0
-316 384 189 0
317 -417 -318 0
317 -385 248 -318 0
317 -385 -417 0
317 385 -248 -318 0
-317 417 318 0
-317 -385 417 -248 0
-317 385 318 0
-317 385 417 248 0
318 -418 -321 0
318 -418 -319 0
318 -319 -321 0
-318 319 321 0
-318 418 321 0
-318 418 319 0
-319 -249 -320 0
-319 249 320 0
319 249 -320 0
319 -249 320 0
320 386 -193 0
320 -386 193 0
-320 -386 -193 0
-320 386 193 0
321 -419 -324 0
321 -419 -322 0
321 -322 -324 0
-321 322 324 0
-321 419 324 0
-321 419 322 0
-322 -250 -323 0
-322 250 323 0
322 250 -323 0
322 -250 323 0
323 387 -196 0
323 -387 196 0
-323 -387 -196 0
-323 387 196 0
324 -420 -327 0
324 -420 -325 0
324 -325 -327 0
-324 325 327 0
-324 420 327 0
-324 420 325 0
-325 -251 -326 0
-325 251 326 0
325 251 -326 0
325 -251 326 0
326 388 -199 0
326 -388 199 0
-326 -388 -199 0
-326 388 199 0
327 -421 -328 0
327 -328 -330 0
327 -421 -330 0
-327 421 330 0
-327 328 330 0
-327 421 328 0
328 252 -329 0
328 -252 329 0
-328 -252 -329 0
-328 252 329 0
329 389 -202 0
329 -389 202 0
-329 -389 -202 0
-329 389 202 0
330 -422 -331 0
330 -331 -333 0
330 -422 -333 0
-330 422 333 0
-330 331 333 0
-330 422 331 0
331 253 -332 0
331 -253 332 0
-331 -253 -332 0
-331 253 332 0
332 390 -205 0
332 -390 205 0
-332 -390 -205 0
-332 390 205 0
333 -423 -334 0
333 -334 -336 0
333 -423 -336 0
-333 423 336 0
-333 334 336 0
-333 423 334 0
334 254 -335 0
334 -254 335 0
-334 -254 -335 0
-334 254 335 0
335 391 -208 0
335 -391 208 0
-335 -391 -208 0
-335 391 208 0
336 -424 -337 0
336 -337 -339 0
336 -424 -339 0
-336 424 339 0
-336 337 339 0
-336 424 337 0
337 255 -338 0
337 -255 338 0
-337 -255 -338 0
-337 255 338 0
338 392 -211 0
338 -392 211 0
-338 -392 -211 0
-338 392 211 0
339 -425 -340 0
339 -393 256 -340 0
339 -393 -425 0
339 393 -256 -340 0
-339 425 340 0
-339 393 425 256 0
-339 393 340 0
-339 -393 425 -256 0
-340 426 214 0
-340 -394 214 -215 0
-340 394 426 215 0
-340 394 214 215 0
-340 -394 426 -215 0
340 -426 -214 0
340 394 -426 -215 0
340 -394 -214 215 0
340 -394 -426 215 0
340 394 -214 -215 0
341 46 -342 0
341 -46 342 0
-341 -46 -342 0
-341 46 342 0
342 -365 6 0
342 365 -6 0
-342 365 6 0
-342 -365 -6 0
343 260 -344 0
343 -260 344 0
-343 -260 -344 0
-343 260 344 0
344 -397 258 0
344 397 -258 0
-344 397 258 0
-344 -397 -258 0
-345 346 351 353 355 0
-345 346 -351 -353 355 0
345 -355 0
345 -351 353 0
345 -346 0
345 351 -353 0
346 347 -349 0
346 -347 349 0
-346 -347 -349 0
-346 347 349 0
347 76 -348 0
347 -76 348 0
-347 -76 -348 0
-347 76 348 0
348 -366 47 0
348 366 -47 0
-348 366 47 0
-348 -366 -47 0
349 263 -350 0
349 -263 350 0
-349 -263 -350 0
-349 263 350 0
350 -398 261 0
350 398 -261 0
-350 398 261 0
-350 -398 -261 0
351 92 -352 0
351 -92 352 0
-351 -92 -352 0
-351 92 352 0
352 -367 77 0
352 367 -77 0
-352 367 77 0
-352 -367 -77 0
353 266 -354 0
353 -266 354 0
-353 -266 -354 0
-353 266 354 0
354 -399 264 0
354 399 -264 0
-354 399 264 0
-354 -399 -264 0
-355 -356 359 0
-355 -269 -358 359 0
-355 269 358 359 0
355 -359 0
355 269 356 -358 0
355 -269 356 358 0
356 107 -357 0
356 -107 357 0
-356 -107 -357 0
-356 107 357 0
357 -368 93 0
357 368 -93 0
-357 368 93 0
-357 -368 -93 0
358 -400 267 0
358 400 -267 0
-358 400 267 0
-358 -400 -267 0
359 360 -362 0
359 -360 362 0
-359 -360 -362 0
-359 360 362 0
360 115 -361 0
360 -115 361 0
-360 -115 -361 0
-360 115 361 0
361 -369 108 0
361 369 -108 0
-361 369 108 0
-361 -369 -108 0
362 272 -363 0
362 -272 363 0
-362 -272 -363 0
-362 272 363 0
363 -401 270 0
363 401 -270 0
-363 401 270 0
-363 -401 -270 0
-428 0
2 0

